
Gurobi 8.0.1 (linux64, Python) logging started Fri Aug 10 12:51:09 2018

Academic license - for non-commercial use only

Gurobi 8.0.1 (linux64, Python) logging started Fri Aug 10 19:09:06 2018

Academic license - for non-commercial use only
